c Sudoku solution
p cnf 729 0
132 0
153 0
195 0
218 0
279 0
294 0
316 0
329 0
334 0
367 0
414 0
433 0
223 0
235 0
287 0
491 0
558 0
672 0
689 0
766 0
842 0
873 0
881 0
919 0
713 0
512 0
539 0
965 0
943 0
986 0
188 0
176 0
371 0
348 0
355 0
868 0
485 0
775 0
992 0
784 0
722 0
574 0
583 0
663 0
561 0
262 0
452 0
469 0
164 0
149 0
644 0
545 0
382 0
393 0
527 0
596 0
121 0
117 0
611 0
625 0
815 0
741 0
931 0
246 0
251 0
447 0
656 0
426 0
638 0
478 0
697 0
824 0
928 0
836 0
737 0
759 0
798 0
977 0
899 0
857 0
954 0
